set VV := 0 1 2 3 4 5 6 7 8 9 10 11 12 13 14 15 16 17 18 19 20 ;
set VS := 0 1 2 3 4 5 6 7 8 9 10 11 12 13 14 15 16 17 18 19 20 21 22 23 24 25 26 27 28 29 30 31 32 33 34 35 36 37 38 39 40 41 42 43 44 45 ;
param cv := 
0 16
1 24
2 14
3 22
4 13
5 20
6 10
7 10
8 21
9 20
10 16
11 25
12 23
13 13
14 22
15 10
16 20
17 19
18 16
19 21
20 15
;
param cs := 
0 38
1 24
2 31
3 24
4 22
5 34
6 34
7 34
8 21
9 27
10 22
11 25
12 21
13 28
14 29
15 31
16 32
17 23
18 26
19 27
20 40
21 39
22 39
23 20
24 39
25 30
26 40
27 31
28 21
29 35
30 22
31 25
32 37
33 31
34 36
35 24
36 31
37 37
38 34
39 37
40 25
41 26
42 34
43 28
44 31
45 39
;
param bv:	 0 1 2 3 4 5 6 7 8 9 10 11 12 13 14 15 16 17 18 19 20 := 
		0 0 0 0 0 0 0 0 0 0 0 0 0 0 0 0 0 0 10 0 0 0 
		1 0 0 0 0 11 0 23 12 0 14 12 13 10 0 0 0 0 0 25 19 0 
		2 0 0 0 0 22 0 0 19 0 17 0 0 0 21 0 0 13 0 0 0 0 
		3 0 0 0 0 0 0 0 0 0 0 0 0 18 0 16 0 0 0 0 0 0 
		4 0 0 0 0 0 0 0 0 24 0 0 0 0 0 10 0 0 0 0 0 0 
		5 0 0 0 0 0 0 16 0 0 0 0 0 0 0 0 0 0 0 0 0 0 
		6 0 0 0 0 0 0 0 0 0 0 0 0 0 0 0 0 0 0 0 0 0 
		7 0 0 0 0 0 0 0 0 0 0 13 0 0 15 0 0 0 0 0 0 0 
		8 0 0 0 0 0 0 0 0 0 0 0 0 0 0 0 0 0 0 0 0 0 
		9 0 0 0 0 0 0 0 0 0 0 0 0 0 0 0 0 0 0 0 0 0 
		10 0 0 0 0 0 0 0 0 0 0 0 0 0 0 0 0 0 0 0 23 0 
		11 0 0 0 0 0 0 0 0 0 0 0 0 0 0 0 0 0 12 0 0 0 
		12 0 0 0 0 0 0 0 0 0 0 0 0 0 0 0 0 0 0 0 0 0 
		13 0 0 0 0 0 0 0 0 0 0 0 0 0 0 0 0 0 0 0 0 0 
		14 0 0 0 0 0 0 0 0 0 0 0 0 0 0 0 0 0 0 0 0 0 
		15 0 0 0 0 0 0 0 0 0 0 0 0 0 0 0 0 18 0 0 0 0 
		16 0 0 0 0 0 0 0 0 0 0 0 0 0 0 0 0 0 0 0 0 0 
		17 0 0 0 0 0 0 0 0 0 0 0 0 0 0 0 0 0 0 0 0 0 
		18 0 0 0 0 0 0 0 0 0 0 0 0 0 0 0 0 0 0 0 0 0 
		19 0 0 0 0 0 0 0 0 0 0 0 0 0 0 0 0 0 0 0 0 19 
		20 0 0 0 0 0 0 0 0 0 0 0 0 0 0 0 0 0 0 0 0 0 
;
param bs:	 0 1 2 3 4 5 6 7 8 9 10 11 12 13 14 15 16 17 18 19 20 21 22 23 24 25 26 27 28 29 30 31 32 33 34 35 36 37 38 39 40 41 42 43 44 45 := 
		0 0 29 0 0 21 0 0 0 0 0 0 0 0 0 0 0 0 0 0 0 0 0 0 0 0 0 0 0 0 0 0 0 0 0 0 0 0 0 27 0 0 26 0 0 39 0 
		1 29 0 0 0 0 0 0 21 0 40 0 38 0 0 0 0 0 0 0 0 0 0 0 0 0 0 0 0 0 27 0 0 0 0 0 0 35 0 0 0 0 0 28 0 0 31 
		2 0 0 0 0 0 0 0 0 0 0 0 0 0 0 0 0 0 22 0 24 0 0 0 0 0 0 0 0 0 0 0 0 0 0 0 0 32 0 0 0 0 0 21 0 0 30 
		3 0 0 0 0 0 0 24 23 0 0 0 30 0 36 0 22 0 0 0 0 0 0 0 0 0 0 0 0 0 0 40 0 0 0 0 0 0 36 0 24 20 0 0 0 0 0 
		4 21 0 0 0 0 0 0 0 0 0 0 0 0 29 0 39 0 0 0 0 0 0 0 0 0 0 0 0 0 0 29 0 0 21 0 0 40 0 0 35 0 0 32 0 0 0 
		5 0 0 0 0 0 0 0 0 0 36 0 0 0 0 37 38 0 0 0 0 0 0 0 0 0 0 0 0 0 0 0 0 0 0 31 0 0 0 0 0 0 24 0 0 0 21 
		6 0 0 0 24 0 0 0 0 0 0 0 0 0 0 0 0 0 0 0 0 0 0 0 0 0 0 0 0 0 22 33 0 0 0 0 0 0 0 35 0 0 0 0 0 0 34 
		7 0 21 0 23 0 0 0 0 0 0 0 0 0 0 0 0 0 0 29 0 0 0 0 0 34 0 0 0 0 0 0 33 0 0 0 22 0 0 0 0 0 0 0 0 0 0 
		8 0 0 0 0 0 0 0 0 0 0 0 0 0 0 0 0 0 0 34 0 37 0 0 0 0 0 0 0 0 0 31 0 0 0 0 0 0 0 0 0 0 0 0 0 0 0 
		9 0 40 0 0 0 36 0 0 0 0 0 0 0 0 0 32 0 0 35 0 0 0 0 0 24 0 0 0 0 0 0 0 0 0 20 0 0 0 0 0 0 0 0 24 0 0 
		10 0 0 0 0 0 0 0 0 0 0 0 0 0 0 0 0 0 0 0 0 0 0 0 0 0 0 0 0 0 0 0 0 0 0 0 0 0 0 0 0 0 0 0 25 0 0 
		11 0 38 0 30 0 0 0 0 0 0 0 0 0 0 36 0 0 0 0 0 28 34 28 0 0 0 0 0 0 0 0 0 0 0 0 0 0 0 22 0 0 0 0 0 0 0 
		12 0 0 0 0 0 0 0 0 0 0 0 0 0 0 0 0 0 0 0 0 0 0 0 0 0 0 0 23 0 0 0 0 0 0 0 0 24 0 0 0 0 0 0 0 26 0 
		13 0 0 0 36 29 0 0 0 0 0 0 0 0 0 0 0 40 25 0 0 0 0 38 0 0 26 0 0 0 38 37 0 0 0 0 0 0 29 0 0 0 0 0 0 0 0 
		14 0 0 0 0 0 37 0 0 0 0 0 36 0 0 0 36 0 0 0 0 0 0 0 26 0 0 0 0 0 0 0 0 0 0 0 24 24 0 0 0 0 0 0 0 26 0 
		15 0 0 0 22 39 38 0 0 0 32 0 0 0 0 36 0 0 0 0 0 0 0 0 0 0 0 0 0 0 0 0 0 0 0 37 0 0 0 0 0 0 0 0 0 0 0 
		16 0 0 0 0 0 0 0 0 0 0 0 0 0 40 0 0 0 0 0 0 0 0 0 0 0 0 0 0 0 0 0 0 0 0 0 0 0 0 0 0 0 0 0 0 0 29 
		17 0 0 22 0 0 0 0 0 0 0 0 0 0 25 0 0 0 0 0 0 0 37 0 34 0 0 0 0 0 0 0 0 0 0 0 0 0 0 0 0 0 0 0 0 0 0 
		18 0 0 0 0 0 0 0 29 34 35 0 0 0 0 0 0 0 0 0 0 0 0 0 0 0 0 0 0 0 0 0 0 0 0 0 0 0 37 0 0 0 0 0 0 0 0 
		19 0 0 24 0 0 0 0 0 0 0 0 0 0 0 0 0 0 0 0 0 0 0 0 0 0 0 0 0 0 0 0 0 0 0 0 0 0 0 0 0 0 0 38 0 0 21 
		20 0 0 0 0 0 0 0 0 37 0 0 28 0 0 0 0 0 0 0 0 0 0 0 26 0 0 0 0 0 0 0 0 36 40 0 0 0 0 0 0 0 0 0 0 0 38 
		21 0 0 0 0 0 0 0 0 0 0 0 34 0 0 0 0 0 37 0 0 0 0 0 0 0 0 0 0 0 0 0 0 0 0 0 35 0 0 0 0 0 0 30 0 0 0 
		22 0 0 0 0 0 0 0 0 0 0 0 28 0 38 0 0 0 0 0 0 0 0 0 0 0 0 0 0 21 0 0 0 0 0 0 0 20 20 0 0 0 0 0 0 0 26 
		23 0 0 0 0 0 0 0 0 0 0 0 0 0 0 26 0 0 34 0 0 26 0 0 0 0 40 0 0 39 0 0 0 0 29 0 0 0 0 0 0 0 0 0 0 31 0 
		24 0 0 0 0 0 0 0 34 0 24 0 0 0 0 0 0 0 0 0 0 0 0 0 0 0 0 0 0 0 0 0 0 0 0 35 0 0 0 0 0 0 0 0 24 0 0 
		25 0 0 0 0 0 0 0 0 0 0 0 0 0 26 0 0 0 0 0 0 0 0 0 40 0 0 0 0 23 0 28 0 0 0 0 0 0 32 0 0 0 0 0 0 0 0 
		26 0 0 0 0 0 0 0 0 0 0 0 0 0 0 0 0 0 0 0 0 0 0 0 0 0 0 0 0 0 0 0 0 0 32 0 0 0 0 38 0 0 0 0 0 0 0 
		27 0 0 0 0 0 0 0 0 0 0 0 0 23 0 0 0 0 0 0 0 0 0 0 0 0 0 0 0 0 0 0 0 0 0 0 0 24 0 0 0 0 0 0 0 0 0 
		28 0 0 0 0 0 0 0 0 0 0 0 0 0 0 0 0 0 0 0 0 0 0 21 39 0 23 0 0 0 0 0 0 0 0 0 0 0 0 0 0 0 0 0 0 0 0 
		29 0 27 0 0 0 0 22 0 0 0 0 0 0 38 0 0 0 0 0 0 0 0 0 0 0 0 0 0 0 0 0 0 21 0 0 0 0 0 29 0 27 0 0 0 0 0 
		30 0 0 0 40 29 0 33 0 31 0 0 0 0 37 0 0 0 0 0 0 0 0 0 0 0 28 0 0 0 0 0 0 0 0 0 0 0 0 0 0 0 0 0 0 0 0 
		31 0 0 0 0 0 0 0 33 0 0 0 0 0 0 0 0 0 0 0 0 0 0 0 0 0 0 0 0 0 0 0 0 0 0 35 0 23 0 0 0 0 0 0 35 0 0 
		32 0 0 0 0 0 0 0 0 0 0 0 0 0 0 0 0 0 0 0 0 36 0 0 0 0 0 0 0 0 21 0 0 0 32 0 0 0 0 0 0 0 0 0 0 0 0 
		33 0 0 0 0 21 0 0 0 0 0 0 0 0 0 0 0 0 0 0 0 40 0 0 29 0 0 32 0 0 0 0 0 32 0 0 0 0 0 25 0 0 0 0 0 0 0 
		34 0 0 0 0 0 31 0 0 0 20 0 0 0 0 0 37 0 0 0 0 0 0 0 0 35 0 0 0 0 0 0 35 0 0 0 0 0 0 0 0 0 0 0 0 0 0 
		35 0 0 0 0 0 0 0 22 0 0 0 0 0 0 24 0 0 0 0 0 0 35 0 0 0 0 0 0 0 0 0 0 0 0 0 0 0 0 0 0 0 0 30 30 0 0 
		36 0 35 32 0 40 0 0 0 0 0 0 0 24 0 24 0 0 0 0 0 0 0 20 0 0 0 0 24 0 0 0 23 0 0 0 0 0 35 0 0 0 0 0 0 0 0 
		37 0 0 0 36 0 0 0 0 0 0 0 0 0 29 0 0 0 0 37 0 0 0 20 0 0 32 0 0 0 0 0 0 0 0 0 0 35 0 0 0 0 0 0 0 0 0 
		38 27 0 0 0 0 0 35 0 0 0 0 22 0 0 0 0 0 0 0 0 0 0 0 0 0 0 38 0 0 29 0 0 0 25 0 0 0 0 0 0 0 0 0 0 30 0 
		39 0 0 0 24 35 0 0 0 0 0 0 0 0 0 0 0 0 0 0 0 0 0 0 0 0 0 0 0 0 0 0 0 0 0 0 0 0 0 0 0 0 0 0 0 0 21 
		40 0 0 0 20 0 0 0 0 0 0 0 0 0 0 0 0 0 0 0 0 0 0 0 0 0 0 0 0 0 27 0 0 0 0 0 0 0 0 0 0 0 0 0 0 0 0 
		41 26 0 0 0 0 24 0 0 0 0 0 0 0 0 0 0 0 0 0 0 0 0 0 0 0 0 0 0 0 0 0 0 0 0 0 0 0 0 0 0 0 0 0 0 0 0 
		42 0 28 21 0 32 0 0 0 0 0 0 0 0 0 0 0 0 0 0 38 0 30 0 0 0 0 0 0 0 0 0 0 0 0 0 30 0 0 0 0 0 0 0 0 0 27 
		43 0 0 0 0 0 0 0 0 0 24 25 0 0 0 0 0 0 0 0 0 0 0 0 0 24 0 0 0 0 0 0 35 0 0 0 30 0 0 0 0 0 0 0 0 0 0 
		44 39 0 0 0 0 0 0 0 0 0 0 0 26 0 26 0 0 0 0 0 0 0 0 31 0 0 0 0 0 0 0 0 0 0 0 0 0 0 30 0 0 0 0 0 0 0 
		45 0 31 30 0 0 21 34 0 0 0 0 0 0 0 0 0 29 0 0 21 38 0 26 0 0 0 0 0 0 0 0 0 0 0 0 0 0 0 0 21 0 0 27 0 0 0 
;
